Unperturbed__num_neighbours=2__inter_15_
   1.00000000000000     
    11.1864961579707192    0.0000000000000000    0.0000000000000006
     0.0000000000000020   12.0563016781936394    0.0000000000000008
     0.0000000000000000    0.0000000000000000   10.0714434998322684
   Na   P 
    32    33
Direct
  0.4289675932695162  0.1843127871473916  0.7188774552148015
  0.4232809097055032  0.6788190494831823  0.7127900802697592
  0.9179260860448323  0.1331094088490181  0.7328943044413483
  0.9181897383791682  0.6583004429831133  0.7196079090862327
  0.2161260483957935  0.1409215238177822  0.2215357358588192
  0.1702418261179008  0.5795674116955338  0.2834818414568792
  0.6674387547308011  0.0993743560938840  0.2823388743794656
  0.6624842387488130  0.5771513397839542  0.2833799457695793
  0.0751489006937685  0.4057730124702901  0.7834364449430135
  0.0787525635096143  0.8945631626046748  0.7817722065010156
  0.5761461488815014  0.4207124783728972  0.7891747229411982
  0.5601797273560202  0.9462502012289743  0.8102906999694153
  0.3471398056117408  0.3747114033184060  0.2422152061707986
  0.3160765099579670  0.8414025510024999  0.2214027370175927
  0.8302221753853304  0.3454801820985905  0.2245092154712570
  0.8223311246996137  0.8241654617345678  0.2188855887540697
  0.0585035511017237  0.3202782021262482  0.4168597790172481
  0.0548205812821125  0.7826489394390126  0.4007697814281789
  0.5662138668894084  0.3073041860967777  0.4310853549277838
  0.5528355834307653  0.8047462316047578  0.4113776059548672
  0.3059238254672809  0.4502712217127290  0.5946380985413211
  0.3144148551519249  0.9456552719688474  0.5892777125580798
  0.8076974276206943  0.4404501873532356  0.5942671345400375
  0.7554733044791334  0.8979435431073933  0.6189927634879230
  0.4442356607738995  0.0502507361381984  0.0876804385894400
  0.4449184172614475  0.5620591379656869  0.0708288697777055
  0.9422861196737259  0.0512965021274659  0.0918013547314918
  0.9425646616535264  0.5559353849268535  0.0816627570393246
  0.1901410618752683  0.1880831928492552  0.9082288100079992
  0.1929938621999437  0.6848781452334495  0.9238617578020518
  0.6936594790743605  0.1956060257143039  0.9329532540654729
  0.6860647508927533  0.6970123924348608  0.9141930190117881
  0.3230108884546841  0.2355013952920701  0.4672060794727539
  0.3020289750478071  0.7240198005720957  0.4672025547289730
  0.8140359847609097  0.2216990302943391  0.4801488484134099
  0.8004718763203609  0.7057797336752990  0.4626535639066485
  0.1118611716224527  0.0696074138356486  0.4585180487028097
  0.0582152725917405  0.5293590905580274  0.5417180785199220
  0.5590695548429225  0.0336227923734346  0.5406062975121563
  0.5450233327168527  0.5243965117845324  0.5344688257825788
  0.1926235495652006  0.4631724379125395  0.0364870226052981
  0.1858659509798904  0.9691084522976573  0.0305345666282780
  0.6951489507897551  0.4720602683595312  0.0333454567342666
  0.6888182596331834  0.9681038735040942  0.0494909817985777
  0.4440221141195994  0.2735293484312885  0.9865397333174591
  0.4382659910410545  0.7805370583226692  0.9663778197407024
  0.9419914595395562  0.2729953779065511  0.9729931529153442
  0.9353641600855883  0.7772499310977218  0.9660916639534418
  0.1812961488105913  0.1807445252518674  0.6074837352663560
  0.1708905473014740  0.6654940100383190  0.6192069175482755
  0.6799107936530436  0.1600057550034542  0.6242493901415217
  0.6693996756234928  0.6506827433091663  0.6126608683088044
  0.4271699120994650  0.0928711344003717  0.3939072503801800
  0.4166644927624356  0.5912240407410720  0.3848848031702245
  0.9140507653389170  0.0845504455388325  0.3923933865941445
  0.9222322535525511  0.5752138176180709  0.3876026969540081
  0.3282181238951366  0.3994777555752033  0.8933311560806858
  0.3198953363925017  0.9107712206032970  0.8843762574549867
  0.8286192159606630  0.4057270057324870  0.8888972378857306
  0.8179317526863713  0.9127512038711755  0.8952755009773301
  0.0770153628232089  0.3329447184445534  0.1201249006923944
  0.0707298527443007  0.8358305405078205  0.1117812319040878
  0.5802990948904229  0.3444580235418798  0.1263030198209255
  0.5673449985089866  0.8353786362365110  0.1211327015019092
  0.9764889147283005 -0.0373292079502600  0.5357653496749537
 
  0.00000000E+00  0.00000000E+00  0.00000000E+00
  0.00000000E+00  0.00000000E+00  0.00000000E+00
  0.00000000E+00  0.00000000E+00  0.00000000E+00
  0.00000000E+00  0.00000000E+00  0.00000000E+00
  0.00000000E+00  0.00000000E+00  0.00000000E+00
  0.00000000E+00  0.00000000E+00  0.00000000E+00
  0.00000000E+00  0.00000000E+00  0.00000000E+00
  0.00000000E+00  0.00000000E+00  0.00000000E+00
  0.00000000E+00  0.00000000E+00  0.00000000E+00
  0.00000000E+00  0.00000000E+00  0.00000000E+00
  0.00000000E+00  0.00000000E+00  0.00000000E+00
  0.00000000E+00  0.00000000E+00  0.00000000E+00
  0.00000000E+00  0.00000000E+00  0.00000000E+00
  0.00000000E+00  0.00000000E+00  0.00000000E+00
  0.00000000E+00  0.00000000E+00  0.00000000E+00
  0.00000000E+00  0.00000000E+00  0.00000000E+00
  0.00000000E+00  0.00000000E+00  0.00000000E+00
  0.00000000E+00  0.00000000E+00  0.00000000E+00
  0.00000000E+00  0.00000000E+00  0.00000000E+00
  0.00000000E+00  0.00000000E+00  0.00000000E+00
  0.00000000E+00  0.00000000E+00  0.00000000E+00
  0.00000000E+00  0.00000000E+00  0.00000000E+00
  0.00000000E+00  0.00000000E+00  0.00000000E+00
  0.00000000E+00  0.00000000E+00  0.00000000E+00
  0.00000000E+00  0.00000000E+00  0.00000000E+00
  0.00000000E+00  0.00000000E+00  0.00000000E+00
  0.00000000E+00  0.00000000E+00  0.00000000E+00
  0.00000000E+00  0.00000000E+00  0.00000000E+00
  0.00000000E+00  0.00000000E+00  0.00000000E+00
  0.00000000E+00  0.00000000E+00  0.00000000E+00
  0.00000000E+00  0.00000000E+00  0.00000000E+00
  0.00000000E+00  0.00000000E+00  0.00000000E+00
  0.00000000E+00  0.00000000E+00  0.00000000E+00
  0.00000000E+00  0.00000000E+00  0.00000000E+00
  0.00000000E+00  0.00000000E+00  0.00000000E+00
  0.00000000E+00  0.00000000E+00  0.00000000E+00
  0.00000000E+00  0.00000000E+00  0.00000000E+00
  0.00000000E+00  0.00000000E+00  0.00000000E+00
  0.00000000E+00  0.00000000E+00  0.00000000E+00
  0.00000000E+00  0.00000000E+00  0.00000000E+00
  0.00000000E+00  0.00000000E+00  0.00000000E+00
  0.00000000E+00  0.00000000E+00  0.00000000E+00
  0.00000000E+00  0.00000000E+00  0.00000000E+00
  0.00000000E+00  0.00000000E+00  0.00000000E+00
  0.00000000E+00  0.00000000E+00  0.00000000E+00
  0.00000000E+00  0.00000000E+00  0.00000000E+00
  0.00000000E+00  0.00000000E+00  0.00000000E+00
  0.00000000E+00  0.00000000E+00  0.00000000E+00
  0.00000000E+00  0.00000000E+00  0.00000000E+00
  0.00000000E+00  0.00000000E+00  0.00000000E+00
  0.00000000E+00  0.00000000E+00  0.00000000E+00
  0.00000000E+00  0.00000000E+00  0.00000000E+00
  0.00000000E+00  0.00000000E+00  0.00000000E+00
  0.00000000E+00  0.00000000E+00  0.00000000E+00
  0.00000000E+00  0.00000000E+00  0.00000000E+00
  0.00000000E+00  0.00000000E+00  0.00000000E+00
  0.00000000E+00  0.00000000E+00  0.00000000E+00
  0.00000000E+00  0.00000000E+00  0.00000000E+00
  0.00000000E+00  0.00000000E+00  0.00000000E+00
  0.00000000E+00  0.00000000E+00  0.00000000E+00
  0.00000000E+00  0.00000000E+00  0.00000000E+00
  0.00000000E+00  0.00000000E+00  0.00000000E+00
  0.00000000E+00  0.00000000E+00  0.00000000E+00
  0.00000000E+00  0.00000000E+00  0.00000000E+00
  0.00000000E+00  0.00000000E+00  0.00000000E+00
