Na256 P256
1.0
  22.3729920000000000    0.0000000000000000    0.0000000000000000
   0.0000000000000000   24.1126040000000010    0.0000000000000000
   0.0000000000000000    0.0000000000000000   20.1428860000000007
Na P
256 256
direct
   0.2113155000000000    0.0823160000000000    0.3588705000000000 Na
   0.2113155000000000    0.0823160000000000    0.8588705000000000 Na
   0.2113155000000000    0.5823160000000001    0.3588705000000000 Na
   0.2113155000000000    0.5823160000000001    0.8588705000000000 Na
   0.7113154999999999    0.0823160000000000    0.3588705000000000 Na
   0.7113154999999999    0.0823160000000000    0.8588705000000000 Na
   0.7113154999999999    0.5823160000000001    0.3588705000000000 Na
   0.7113154999999999    0.5823160000000001    0.8588705000000000 Na
   0.2113155000000000    0.3323160000000001    0.3588705000000000 Na
   0.2113155000000000    0.3323160000000001    0.8588705000000000 Na
   0.2113155000000000    0.8323160000000001    0.3588705000000000 Na
   0.2113155000000000    0.8323160000000001    0.8588705000000000 Na
   0.7113154999999999    0.3323160000000001    0.3588705000000000 Na
   0.7113154999999999    0.3323160000000001    0.8588705000000000 Na
   0.7113154999999999    0.8323160000000001    0.3588705000000000 Na
   0.7113154999999999    0.8323160000000001    0.8588705000000000 Na
   0.4613155000000000    0.0823160000000000    0.3588705000000000 Na
   0.4613155000000000    0.0823160000000000    0.8588705000000000 Na
   0.4613155000000000    0.5823160000000001    0.3588705000000000 Na
   0.4613155000000000    0.5823160000000001    0.8588705000000000 Na
   0.9613154999999999    0.0823160000000000    0.3588705000000000 Na
   0.9613154999999999    0.0823160000000000    0.8588705000000000 Na
   0.9613154999999999    0.5823160000000001    0.3588705000000000 Na
   0.9613154999999999    0.5823160000000001    0.8588705000000000 Na
   0.4613155000000000    0.3323160000000001    0.3588705000000000 Na
   0.4613155000000000    0.3323160000000001    0.8588705000000000 Na
   0.4613155000000000    0.8323160000000001    0.3588705000000000 Na
   0.4613155000000000    0.8323160000000001    0.8588705000000000 Na
   0.9613154999999999    0.3323160000000001    0.3588705000000000 Na
   0.9613154999999999    0.3323160000000001    0.8588705000000000 Na
   0.9613154999999999    0.8323160000000001    0.3588705000000000 Na
   0.9613154999999999    0.8323160000000001    0.8588705000000000 Na
   0.0863155000000000    0.0426840000000000    0.1411295000000000 Na
   0.0863155000000000    0.0426840000000000    0.6411295000000000 Na
   0.0863155000000000    0.5426840000000001    0.1411295000000000 Na
   0.0863155000000000    0.5426840000000001    0.6411295000000000 Na
   0.5863155000000000    0.0426840000000000    0.1411295000000000 Na
   0.5863155000000000    0.0426840000000000    0.6411295000000000 Na
   0.5863155000000000    0.5426840000000001    0.1411295000000000 Na
   0.5863155000000000    0.5426840000000001    0.6411295000000000 Na
   0.0863155000000000    0.2926840000000000    0.1411295000000000 Na
   0.0863155000000000    0.2926840000000000    0.6411295000000000 Na
   0.0863155000000000    0.7926839999999999    0.1411295000000000 Na
   0.0863155000000000    0.7926839999999999    0.6411295000000000 Na
   0.5863155000000000    0.2926840000000000    0.1411295000000000 Na
   0.5863155000000000    0.2926840000000000    0.6411295000000000 Na
   0.5863155000000000    0.7926839999999999    0.1411295000000000 Na
   0.5863155000000000    0.7926839999999999    0.6411295000000000 Na
   0.3363155000000000    0.0426840000000000    0.1411295000000000 Na
   0.3363155000000000    0.0426840000000000    0.6411295000000000 Na
   0.3363155000000000    0.5426840000000001    0.1411295000000000 Na
   0.3363155000000000    0.5426840000000001    0.6411295000000000 Na
   0.8363155000000000    0.0426840000000000    0.1411295000000000 Na
   0.8363155000000000    0.0426840000000000    0.6411295000000000 Na
   0.8363155000000000    0.5426840000000001    0.1411295000000000 Na
   0.8363155000000000    0.5426840000000001    0.6411295000000000 Na
   0.3363155000000000    0.2926840000000000    0.1411295000000000 Na
   0.3363155000000000    0.2926840000000000    0.6411295000000000 Na
   0.3363155000000000    0.7926839999999999    0.1411295000000000 Na
   0.3363155000000000    0.7926839999999999    0.6411295000000000 Na
   0.8363155000000000    0.2926840000000000    0.1411295000000000 Na
   0.8363155000000000    0.2926840000000000    0.6411295000000000 Na
   0.8363155000000000    0.7926839999999999    0.1411295000000000 Na
   0.8363155000000000    0.7926839999999999    0.6411295000000000 Na
   0.0386845000000000    0.2073160000000000    0.3911295000000000 Na
   0.0386845000000000    0.2073160000000000    0.8911294999999999 Na
   0.0386845000000000    0.7073160000000001    0.3911295000000000 Na
   0.0386845000000000    0.7073160000000001    0.8911294999999999 Na
   0.5386845000000000    0.2073160000000000    0.3911295000000000 Na
   0.5386845000000000    0.2073160000000000    0.8911294999999999 Na
   0.5386845000000000    0.7073160000000001    0.3911295000000000 Na
   0.5386845000000000    0.7073160000000001    0.8911294999999999 Na
   0.0386845000000000    0.4573160000000000    0.3911295000000000 Na
   0.0386845000000000    0.4573160000000000    0.8911294999999999 Na
   0.0386845000000000    0.9573160000000002    0.3911295000000000 Na
   0.0386845000000000    0.9573160000000002    0.8911294999999999 Na
   0.5386845000000000    0.4573160000000000    0.3911295000000000 Na
   0.5386845000000000    0.4573160000000000    0.8911294999999999 Na
   0.5386845000000000    0.9573160000000002    0.3911295000000000 Na
   0.5386845000000000    0.9573160000000002    0.8911294999999999 Na
   0.2886845000000000    0.2073160000000000    0.3911295000000000 Na
   0.2886845000000000    0.2073160000000000    0.8911294999999999 Na
   0.2886845000000000    0.7073160000000001    0.3911295000000000 Na
   0.2886845000000000    0.7073160000000001    0.8911294999999999 Na
   0.7886844999999999    0.2073160000000000    0.3911295000000000 Na
   0.7886844999999999    0.2073160000000000    0.8911294999999999 Na
   0.7886844999999999    0.7073160000000001    0.3911295000000000 Na
   0.7886844999999999    0.7073160000000001    0.8911294999999999 Na
   0.2886845000000000    0.4573160000000000    0.3911295000000000 Na
   0.2886845000000000    0.4573160000000000    0.8911294999999999 Na
   0.2886845000000000    0.9573160000000002    0.3911295000000000 Na
   0.2886845000000000    0.9573160000000002    0.8911294999999999 Na
   0.7886844999999999    0.4573160000000000    0.3911295000000000 Na
   0.7886844999999999    0.4573160000000000    0.8911294999999999 Na
   0.7886844999999999    0.9573160000000002    0.3911295000000000 Na
   0.7886844999999999    0.9573160000000002    0.8911294999999999 Na
   0.1636845000000000    0.1676840000000000    0.1088705000000000 Na
   0.1636845000000000    0.1676840000000000    0.6088705000000000 Na
   0.1636845000000000    0.6676840000000001    0.1088705000000000 Na
   0.1636845000000000    0.6676840000000001    0.6088705000000000 Na
   0.6636845000000000    0.1676840000000000    0.1088705000000000 Na
   0.6636845000000000    0.1676840000000000    0.6088705000000000 Na
   0.6636845000000000    0.6676840000000001    0.1088705000000000 Na
   0.6636845000000000    0.6676840000000001    0.6088705000000000 Na
   0.1636845000000000    0.4176840000000001    0.1088705000000000 Na
   0.1636845000000000    0.4176840000000001    0.6088705000000000 Na
   0.1636845000000000    0.9176840000000002    0.1088705000000000 Na
   0.1636845000000000    0.9176840000000002    0.6088705000000000 Na
   0.6636845000000000    0.4176840000000001    0.1088705000000000 Na
   0.6636845000000000    0.4176840000000001    0.6088705000000000 Na
   0.6636845000000000    0.9176840000000002    0.1088705000000000 Na
   0.6636845000000000    0.9176840000000002    0.6088705000000000 Na
   0.4136845000000000    0.1676840000000000    0.1088705000000000 Na
   0.4136845000000000    0.1676840000000000    0.6088705000000000 Na
   0.4136845000000000    0.6676840000000001    0.1088705000000000 Na
   0.4136845000000000    0.6676840000000001    0.6088705000000000 Na
   0.9136845000000000    0.1676840000000000    0.1088705000000000 Na
   0.9136845000000000    0.1676840000000000    0.6088705000000000 Na
   0.9136845000000000    0.6676840000000001    0.1088705000000000 Na
   0.9136845000000000    0.6676840000000001    0.6088705000000000 Na
   0.4136845000000000    0.4176840000000001    0.1088705000000000 Na
   0.4136845000000000    0.4176840000000001    0.6088705000000000 Na
   0.4136845000000000    0.9176840000000002    0.1088705000000000 Na
   0.4136845000000000    0.9176840000000002    0.6088705000000000 Na
   0.9136845000000000    0.4176840000000001    0.1088705000000000 Na
   0.9136845000000000    0.4176840000000001    0.6088705000000000 Na
   0.9136845000000000    0.9176840000000002    0.1088705000000000 Na
   0.9136845000000000    0.9176840000000002    0.6088705000000000 Na
   0.0290980000000000    0.1537460000000000    0.2090450000000000 Na
   0.0290980000000000    0.1537460000000000    0.7090450000000000 Na
   0.0290980000000000    0.6537460000000000    0.2090450000000000 Na
   0.0290980000000000    0.6537460000000000    0.7090450000000000 Na
   0.5290980000000000    0.1537460000000000    0.2090450000000000 Na
   0.5290980000000000    0.1537460000000000    0.7090450000000000 Na
   0.5290980000000000    0.6537460000000000    0.2090450000000000 Na
   0.5290980000000000    0.6537460000000000    0.7090450000000000 Na
   0.0290980000000000    0.4037460000000000    0.2090450000000000 Na
   0.0290980000000000    0.4037460000000000    0.7090450000000000 Na
   0.0290980000000000    0.9037460000000000    0.2090450000000000 Na
   0.0290980000000000    0.9037460000000000    0.7090450000000000 Na
   0.5290980000000000    0.4037460000000000    0.2090450000000000 Na
   0.5290980000000000    0.4037460000000000    0.7090450000000000 Na
   0.5290980000000000    0.9037460000000000    0.2090450000000000 Na
   0.5290980000000000    0.9037460000000000    0.7090450000000000 Na
   0.2790980000000000    0.1537460000000000    0.2090450000000000 Na
   0.2790980000000000    0.1537460000000000    0.7090450000000000 Na
   0.2790980000000000    0.6537460000000000    0.2090450000000000 Na
   0.2790980000000000    0.6537460000000000    0.7090450000000000 Na
   0.7790980000000001    0.1537460000000000    0.2090450000000000 Na
   0.7790980000000001    0.1537460000000000    0.7090450000000000 Na
   0.7790980000000001    0.6537460000000000    0.2090450000000000 Na
   0.7790980000000001    0.6537460000000000    0.7090450000000000 Na
   0.2790980000000000    0.4037460000000000    0.2090450000000000 Na
   0.2790980000000000    0.4037460000000000    0.7090450000000000 Na
   0.2790980000000000    0.9037460000000000    0.2090450000000000 Na
   0.2790980000000000    0.9037460000000000    0.7090450000000000 Na
   0.7790980000000001    0.4037460000000000    0.2090450000000000 Na
   0.7790980000000001    0.4037460000000000    0.7090450000000000 Na
   0.7790980000000001    0.9037460000000000    0.2090450000000000 Na
   0.7790980000000001    0.9037460000000000    0.7090450000000000 Na
   0.1540980000000000    0.2212540000000000    0.2909550000000000 Na
   0.1540980000000000    0.2212540000000000    0.7909550000000000 Na
   0.1540980000000000    0.7212540000000001    0.2909550000000000 Na
   0.1540980000000000    0.7212540000000001    0.7909550000000000 Na
   0.6540980000000001    0.2212540000000000    0.2909550000000000 Na
   0.6540980000000001    0.2212540000000000    0.7909550000000000 Na
   0.6540980000000001    0.7212540000000001    0.2909550000000000 Na
   0.6540980000000001    0.7212540000000001    0.7909550000000000 Na
   0.1540980000000000    0.4712540000000001    0.2909550000000000 Na
   0.1540980000000000    0.4712540000000001    0.7909550000000000 Na
   0.1540980000000000    0.9712540000000001    0.2909550000000000 Na
   0.1540980000000000    0.9712540000000001    0.7909550000000000 Na
   0.6540980000000001    0.4712540000000001    0.2909550000000000 Na
   0.6540980000000001    0.4712540000000001    0.7909550000000000 Na
   0.6540980000000001    0.9712540000000001    0.2909550000000000 Na
   0.6540980000000001    0.9712540000000001    0.7909550000000000 Na
   0.4040980000000000    0.2212540000000000    0.2909550000000000 Na
   0.4040980000000000    0.2212540000000000    0.7909550000000000 Na
   0.4040980000000000    0.7212540000000001    0.2909550000000000 Na
   0.4040980000000000    0.7212540000000001    0.7909550000000000 Na
   0.9040980000000000    0.2212540000000000    0.2909550000000000 Na
   0.9040980000000000    0.2212540000000000    0.7909550000000000 Na
   0.9040980000000000    0.7212540000000001    0.2909550000000000 Na
   0.9040980000000000    0.7212540000000001    0.7909550000000000 Na
   0.4040980000000000    0.4712540000000001    0.2909550000000000 Na
   0.4040980000000000    0.4712540000000001    0.7909550000000000 Na
   0.4040980000000000    0.9712540000000001    0.2909550000000000 Na
   0.4040980000000000    0.9712540000000001    0.7909550000000000 Na
   0.9040980000000000    0.4712540000000001    0.2909550000000000 Na
   0.9040980000000000    0.4712540000000001    0.7909550000000000 Na
   0.9040980000000000    0.9712540000000001    0.2909550000000000 Na
   0.9040980000000000    0.9712540000000001    0.7909550000000000 Na
   0.2209020000000000    0.0287460000000000    0.0409550000000000 Na
   0.2209020000000000    0.0287460000000000    0.5409550000000001 Na
   0.2209020000000000    0.5287460000000000    0.0409550000000000 Na
   0.2209020000000000    0.5287460000000000    0.5409550000000001 Na
   0.7209019999999999    0.0287460000000000    0.0409550000000000 Na
   0.7209019999999999    0.0287460000000000    0.5409550000000001 Na
   0.7209019999999999    0.5287460000000000    0.0409550000000000 Na
   0.7209019999999999    0.5287460000000000    0.5409550000000001 Na
   0.2209020000000000    0.2787460000000000    0.0409550000000000 Na
   0.2209020000000000    0.2787460000000000    0.5409550000000001 Na
   0.2209020000000000    0.7787460000000002    0.0409550000000000 Na
   0.2209020000000000    0.7787460000000002    0.5409550000000001 Na
   0.7209019999999999    0.2787460000000000    0.0409550000000000 Na
   0.7209019999999999    0.2787460000000000    0.5409550000000001 Na
   0.7209019999999999    0.7787460000000002    0.0409550000000000 Na
   0.7209019999999999    0.7787460000000002    0.5409550000000001 Na
   0.4709020000000000    0.0287460000000000    0.0409550000000000 Na
   0.4709020000000000    0.0287460000000000    0.5409550000000001 Na
   0.4709020000000000    0.5287460000000000    0.0409550000000000 Na
   0.4709020000000000    0.5287460000000000    0.5409550000000001 Na
   0.9709020000000000    0.0287460000000000    0.0409550000000000 Na
   0.9709020000000000    0.0287460000000000    0.5409550000000001 Na
   0.9709020000000000    0.5287460000000000    0.0409550000000000 Na
   0.9709020000000000    0.5287460000000000    0.5409550000000001 Na
   0.4709020000000000    0.2787460000000000    0.0409550000000000 Na
   0.4709020000000000    0.2787460000000000    0.5409550000000001 Na
   0.4709020000000000    0.7787460000000002    0.0409550000000000 Na
   0.4709020000000000    0.7787460000000002    0.5409550000000001 Na
   0.9709020000000000    0.2787460000000000    0.0409550000000000 Na
   0.9709020000000000    0.2787460000000000    0.5409550000000001 Na
   0.9709020000000000    0.7787460000000002    0.0409550000000000 Na
   0.9709020000000000    0.7787460000000002    0.5409550000000001 Na
   0.0959020000000000    0.0962540000000000    0.4590450000000000 Na
   0.0959020000000000    0.0962540000000000    0.9590450000000000 Na
   0.0959020000000000    0.5962540000000001    0.4590450000000000 Na
   0.0959020000000000    0.5962540000000001    0.9590450000000000 Na
   0.5959019999999999    0.0962540000000000    0.4590450000000000 Na
   0.5959019999999999    0.0962540000000000    0.9590450000000000 Na
   0.5959019999999999    0.5962540000000001    0.4590450000000000 Na
   0.5959019999999999    0.5962540000000001    0.9590450000000000 Na
   0.0959020000000000    0.3462540000000001    0.4590450000000000 Na
   0.0959020000000000    0.3462540000000001    0.9590450000000000 Na
   0.0959020000000000    0.8462540000000001    0.4590450000000000 Na
   0.0959020000000000    0.8462540000000001    0.9590450000000000 Na
   0.5959019999999999    0.3462540000000001    0.4590450000000000 Na
   0.5959019999999999    0.3462540000000001    0.9590450000000000 Na
   0.5959019999999999    0.8462540000000001    0.4590450000000000 Na
   0.5959019999999999    0.8462540000000001    0.9590450000000000 Na
   0.3459020000000000    0.0962540000000000    0.4590450000000000 Na
   0.3459020000000000    0.0962540000000000    0.9590450000000000 Na
   0.3459020000000000    0.5962540000000001    0.4590450000000000 Na
   0.3459020000000000    0.5962540000000001    0.9590450000000000 Na
   0.8459020000000000    0.0962540000000000    0.4590450000000000 Na
   0.8459020000000000    0.0962540000000000    0.9590450000000000 Na
   0.8459020000000000    0.5962540000000001    0.4590450000000000 Na
   0.8459020000000000    0.5962540000000001    0.9590450000000000 Na
   0.3459020000000000    0.3462540000000001    0.4590450000000000 Na
   0.3459020000000000    0.3462540000000001    0.9590450000000000 Na
   0.3459020000000000    0.8462540000000001    0.4590450000000000 Na
   0.3459020000000000    0.8462540000000001    0.9590450000000000 Na
   0.8459020000000000    0.3462540000000001    0.4590450000000000 Na
   0.8459020000000000    0.3462540000000001    0.9590450000000000 Na
   0.8459020000000000    0.8462540000000001    0.4590450000000000 Na
   0.8459020000000000    0.8462540000000001    0.9590450000000000 Na
   0.1537535000000000    0.1103380000000000    0.2330640000000000 P
   0.1537535000000000    0.1103380000000000    0.7330640000000000 P
   0.1537535000000000    0.6103380000000000    0.2330640000000000 P
   0.1537535000000000    0.6103380000000000    0.7330640000000000 P
   0.6537535000000000    0.1103380000000000    0.2330640000000000 P
   0.6537535000000000    0.1103380000000000    0.7330640000000000 P
   0.6537535000000000    0.6103380000000000    0.2330640000000000 P
   0.6537535000000000    0.6103380000000000    0.7330640000000000 P
   0.1537535000000000    0.3603380000000000    0.2330640000000000 P
   0.1537535000000000    0.3603380000000000    0.7330640000000000 P
   0.1537535000000000    0.8603380000000000    0.2330640000000000 P
   0.1537535000000000    0.8603380000000000    0.7330640000000000 P
   0.6537535000000000    0.3603380000000000    0.2330640000000000 P
   0.6537535000000000    0.3603380000000000    0.7330640000000000 P
   0.6537535000000000    0.8603380000000000    0.2330640000000000 P
   0.6537535000000000    0.8603380000000000    0.7330640000000000 P
   0.4037535000000000    0.1103380000000000    0.2330640000000000 P
   0.4037535000000000    0.1103380000000000    0.7330640000000000 P
   0.4037535000000000    0.6103380000000000    0.2330640000000000 P
   0.4037535000000000    0.6103380000000000    0.7330640000000000 P
   0.9037535000000000    0.1103380000000000    0.2330640000000000 P
   0.9037535000000000    0.1103380000000000    0.7330640000000000 P
   0.9037535000000000    0.6103380000000000    0.2330640000000000 P
   0.9037535000000000    0.6103380000000000    0.7330640000000000 P
   0.4037535000000000    0.3603380000000000    0.2330640000000000 P
   0.4037535000000000    0.3603380000000000    0.7330640000000000 P
   0.4037535000000000    0.8603380000000000    0.2330640000000000 P
   0.4037535000000000    0.8603380000000000    0.7330640000000000 P
   0.9037535000000000    0.3603380000000000    0.2330640000000000 P
   0.9037535000000000    0.3603380000000000    0.7330640000000000 P
   0.9037535000000000    0.8603380000000000    0.2330640000000000 P
   0.9037535000000000    0.8603380000000000    0.7330640000000000 P
   0.0287535000000000    0.0146620000000000    0.2669360000000000 P
   0.0287535000000000    0.0146620000000000    0.7669360000000001 P
   0.0287535000000000    0.5146620000000001    0.2669360000000000 P
   0.0287535000000000    0.5146620000000001    0.7669360000000001 P
   0.5287535000000000    0.0146620000000000    0.2669360000000000 P
   0.5287535000000000    0.0146620000000000    0.7669360000000001 P
   0.5287535000000000    0.5146620000000001    0.2669360000000000 P
   0.5287535000000000    0.5146620000000001    0.7669360000000001 P
   0.0287535000000000    0.2646620000000000    0.2669360000000000 P
   0.0287535000000000    0.2646620000000000    0.7669360000000001 P
   0.0287535000000000    0.7646620000000001    0.2669360000000000 P
   0.0287535000000000    0.7646620000000001    0.7669360000000001 P
   0.5287535000000000    0.2646620000000000    0.2669360000000000 P
   0.5287535000000000    0.2646620000000000    0.7669360000000001 P
   0.5287535000000000    0.7646620000000001    0.2669360000000000 P
   0.5287535000000000    0.7646620000000001    0.7669360000000001 P
   0.2787534999999999    0.0146620000000000    0.2669360000000000 P
   0.2787534999999999    0.0146620000000000    0.7669360000000001 P
   0.2787534999999999    0.5146620000000001    0.2669360000000000 P
   0.2787534999999999    0.5146620000000001    0.7669360000000001 P
   0.7787534999999999    0.0146620000000000    0.2669360000000000 P
   0.7787534999999999    0.0146620000000000    0.7669360000000001 P
   0.7787534999999999    0.5146620000000001    0.2669360000000000 P
   0.7787534999999999    0.5146620000000001    0.7669360000000001 P
   0.2787534999999999    0.2646620000000000    0.2669360000000000 P
   0.2787534999999999    0.2646620000000000    0.7669360000000001 P
   0.2787534999999999    0.7646620000000001    0.2669360000000000 P
   0.2787534999999999    0.7646620000000001    0.7669360000000001 P
   0.7787534999999999    0.2646620000000000    0.2669360000000000 P
   0.7787534999999999    0.2646620000000000    0.7669360000000001 P
   0.7787534999999999    0.7646620000000001    0.2669360000000000 P
   0.7787534999999999    0.7646620000000001    0.7669360000000001 P
   0.0962465000000000    0.2353380000000000    0.0169360000000000 P
   0.0962465000000000    0.2353380000000000    0.5169360000000000 P
   0.0962465000000000    0.7353380000000000    0.0169360000000000 P
   0.0962465000000000    0.7353380000000000    0.5169360000000000 P
   0.5962465000000000    0.2353380000000000    0.0169360000000000 P
   0.5962465000000000    0.2353380000000000    0.5169360000000000 P
   0.5962465000000000    0.7353380000000000    0.0169360000000000 P
   0.5962465000000000    0.7353380000000000    0.5169360000000000 P
   0.0962465000000000    0.4853380000000000    0.0169360000000000 P
   0.0962465000000000    0.4853380000000000    0.5169360000000000 P
   0.0962465000000000    0.9853379999999999    0.0169360000000000 P
   0.0962465000000000    0.9853379999999999    0.5169360000000000 P
   0.5962465000000000    0.4853380000000000    0.0169360000000000 P
   0.5962465000000000    0.4853380000000000    0.5169360000000000 P
   0.5962465000000000    0.9853379999999999    0.0169360000000000 P
   0.5962465000000000    0.9853379999999999    0.5169360000000000 P
   0.3462465000000000    0.2353380000000000    0.0169360000000000 P
   0.3462465000000000    0.2353380000000000    0.5169360000000000 P
   0.3462465000000000    0.7353380000000000    0.0169360000000000 P
   0.3462465000000000    0.7353380000000000    0.5169360000000000 P
   0.8462465000000000    0.2353380000000000    0.0169360000000000 P
   0.8462465000000000    0.2353380000000000    0.5169360000000000 P
   0.8462465000000000    0.7353380000000000    0.0169360000000000 P
   0.8462465000000000    0.7353380000000000    0.5169360000000000 P
   0.3462465000000000    0.4853380000000000    0.0169360000000000 P
   0.3462465000000000    0.4853380000000000    0.5169360000000000 P
   0.3462465000000000    0.9853379999999999    0.0169360000000000 P
   0.3462465000000000    0.9853379999999999    0.5169360000000000 P
   0.8462465000000000    0.4853380000000000    0.0169360000000000 P
   0.8462465000000000    0.4853380000000000    0.5169360000000000 P
   0.8462465000000000    0.9853379999999999    0.0169360000000000 P
   0.8462465000000000    0.9853379999999999    0.5169360000000000 P
   0.2212465000000000    0.1396620000000000    0.4830639999999999 P
   0.2212465000000000    0.1396620000000000    0.9830639999999999 P
   0.2212465000000000    0.6396620000000001    0.4830639999999999 P
   0.2212465000000000    0.6396620000000001    0.9830639999999999 P
   0.7212465000000000    0.1396620000000000    0.4830639999999999 P
   0.7212465000000000    0.1396620000000000    0.9830639999999999 P
   0.7212465000000000    0.6396620000000001    0.4830639999999999 P
   0.7212465000000000    0.6396620000000001    0.9830639999999999 P
   0.2212465000000000    0.3896620000000000    0.4830639999999999 P
   0.2212465000000000    0.3896620000000000    0.9830639999999999 P
   0.2212465000000000    0.8896620000000000    0.4830639999999999 P
   0.2212465000000000    0.8896620000000000    0.9830639999999999 P
   0.7212465000000000    0.3896620000000000    0.4830639999999999 P
   0.7212465000000000    0.3896620000000000    0.9830639999999999 P
   0.7212465000000000    0.8896620000000000    0.4830639999999999 P
   0.7212465000000000    0.8896620000000000    0.9830639999999999 P
   0.4712465000000000    0.1396620000000000    0.4830639999999999 P
   0.4712465000000000    0.1396620000000000    0.9830639999999999 P
   0.4712465000000000    0.6396620000000001    0.4830639999999999 P
   0.4712465000000000    0.6396620000000001    0.9830639999999999 P
   0.9712465000000001    0.1396620000000000    0.4830639999999999 P
   0.9712465000000001    0.1396620000000000    0.9830639999999999 P
   0.9712465000000001    0.6396620000000001    0.4830639999999999 P
   0.9712465000000001    0.6396620000000001    0.9830639999999999 P
   0.4712465000000000    0.3896620000000000    0.4830639999999999 P
   0.4712465000000000    0.3896620000000000    0.9830639999999999 P
   0.4712465000000000    0.8896620000000000    0.4830639999999999 P
   0.4712465000000000    0.8896620000000000    0.9830639999999999 P
   0.9712465000000001    0.3896620000000000    0.4830639999999999 P
   0.9712465000000001    0.3896620000000000    0.9830639999999999 P
   0.9712465000000001    0.8896620000000000    0.4830639999999999 P
   0.9712465000000001    0.8896620000000000    0.9830639999999999 P
   0.0872140000000000    0.0802415000000000    0.3076565000000000 P
   0.0872140000000000    0.0802415000000000    0.8076565000000000 P
   0.0872140000000000    0.5802415000000000    0.3076565000000000 P
   0.0872140000000000    0.5802415000000000    0.8076565000000000 P
   0.5872140000000000    0.0802415000000000    0.3076565000000000 P
   0.5872140000000000    0.0802415000000000    0.8076565000000000 P
   0.5872140000000000    0.5802415000000000    0.3076565000000000 P
   0.5872140000000000    0.5802415000000000    0.8076565000000000 P
   0.0872140000000000    0.3302415000000000    0.3076565000000000 P
   0.0872140000000000    0.3302415000000000    0.8076565000000000 P
   0.0872140000000000    0.8302415000000001    0.3076565000000000 P
   0.0872140000000000    0.8302415000000001    0.8076565000000000 P
   0.5872140000000000    0.3302415000000000    0.3076565000000000 P
   0.5872140000000000    0.3302415000000000    0.8076565000000000 P
   0.5872140000000000    0.8302415000000001    0.3076565000000000 P
   0.5872140000000000    0.8302415000000001    0.8076565000000000 P
   0.3372140000000000    0.0802415000000000    0.3076565000000000 P
   0.3372140000000000    0.0802415000000000    0.8076565000000000 P
   0.3372140000000000    0.5802415000000000    0.3076565000000000 P
   0.3372140000000000    0.5802415000000000    0.8076565000000000 P
   0.8372140000000000    0.0802415000000000    0.3076565000000000 P
   0.8372140000000000    0.0802415000000000    0.8076565000000000 P
   0.8372140000000000    0.5802415000000000    0.3076565000000000 P
   0.8372140000000000    0.5802415000000000    0.8076565000000000 P
   0.3372140000000000    0.3302415000000000    0.3076565000000000 P
   0.3372140000000000    0.3302415000000000    0.8076565000000000 P
   0.3372140000000000    0.8302415000000001    0.3076565000000000 P
   0.3372140000000000    0.8302415000000001    0.8076565000000000 P
   0.8372140000000000    0.3302415000000000    0.3076565000000000 P
   0.8372140000000000    0.3302415000000000    0.8076565000000000 P
   0.8372140000000000    0.8302415000000001    0.3076565000000000 P
   0.8372140000000000    0.8302415000000001    0.8076565000000000 P
   0.2122140000000000    0.0447585000000000    0.1923435000000000 P
   0.2122140000000000    0.0447585000000000    0.6923435000000000 P
   0.2122140000000000    0.5447585000000000    0.1923435000000000 P
   0.2122140000000000    0.5447585000000000    0.6923435000000000 P
   0.7122140000000000    0.0447585000000000    0.1923435000000000 P
   0.7122140000000000    0.0447585000000000    0.6923435000000000 P
   0.7122140000000000    0.5447585000000000    0.1923435000000000 P
   0.7122140000000000    0.5447585000000000    0.6923435000000000 P
   0.2122140000000000    0.2947585000000000    0.1923435000000000 P
   0.2122140000000000    0.2947585000000000    0.6923435000000000 P
   0.2122140000000000    0.7947585000000000    0.1923435000000000 P
   0.2122140000000000    0.7947585000000000    0.6923435000000000 P
   0.7122140000000000    0.2947585000000000    0.1923435000000000 P
   0.7122140000000000    0.2947585000000000    0.6923435000000000 P
   0.7122140000000000    0.7947585000000000    0.1923435000000000 P
   0.7122140000000000    0.7947585000000000    0.6923435000000000 P
   0.4622140000000000    0.0447585000000000    0.1923435000000000 P